'hugeuniform117'
150 100 100
148
145
144
143
140
138
137
136
131
129
128
126
122
120
120
118
117
113
110
108
108
108
107
105
104
103
102
102
101
99
96
95
90
90
88
88
86
85
84
83
83
82
80
79
77
77
76
75
74
73
73
73
71
71
67
67
65
64
63
61
60
57
54
53
52
51
50
49
49
48
48
47
46
46
45
44
43
42
42
41
39
39
34
33
32
31
31
30
29
28
28
25
22
22
19
18
15
14
9
2
